CMD:
./solvers/bin/cadical --plain --no-reduce -t 1600 ./data/cnfs//bobsmdct/bobsmdct.48.cnf

c --- [ banner ] -------------------------------------------------------------
c 
c CaDiCaL SAT Solver
c Copyright (c) 2016-2024
c A. Biere, M. Fleury, N. Froleyks, K. Fazekas, F. Pollitt, T. Faller
c JKU Linz, University of Freiburg, TU Wien
c 
c Version 2.1.3 5296d3d2a9bf48c154ab2acb5e44625776d821bf
c g++ (Gentoo 12.3.1_p20230526 p2) 12.3.1 20230526 -Wall -Wextra -O3 -DNDEBUG
c Sat Aug 9 07:26:21 PDT 2025 Linux cedar2.int.cedar.computecanada.ca 5.14.0-362.24.2.el9_3.x86_64 x86_64
c 
c --- [ limit ] --------------------------------------------------------------
c 
c setting time limit to 1600 seconds real time (due to '-t 1600')
c 
c --- [ parsing input ] ------------------------------------------------------
c 
c reading DIMACS file from './data/cnfs//bobsmdct/bobsmdct.48.cnf'
c opening file to read './data/cnfs//bobsmdct/bobsmdct.48.cnf'
c found 'p cnf 52809 157178' header
c parsed 157178 clauses in 0.02 seconds process time
c 
c --- [ options ] ------------------------------------------------------------
c 
c   --compact=false                (different from default 'true')
c   --decompose=false              (different from default 'true')
c   --deduplicate=false            (different from default 'true')
c   --elim=false                   (different from default 'true')
c   --probe=false                  (different from default 'true')
c   --reduce=false                 (different from default 'true')
c   --subsume=false                (different from default 'true')
c   --ternary=false                (different from default 'true')
c   --transred=false               (different from default 'true')
c   --vivify=false                 (different from default 'true')
c 
c --- [ solving ] ------------------------------------------------------------
c 
c time measured in process time since initialization
c 
c  seconds  reductions  redundant  irredundant
c         MB    restarts       trail       variables
c          level   conflicts       glue         remaining
c 
c *  0.02 26  0 0   0    0    0  0% 0 138838 39744 75%
c {  0.03 27  0 0   0    0    0  0% 0 138838 39744 75%
c i  0.03 27 38 0   0    2    1 27% 1 138838 39743 75%
c i  0.03 27 49 0   0    4    2 28% 1 138838 39742 75%
c i  0.03 27 46 0   1   40   35 28% 2 138838 39736 75%
c i  0.04 27 54 0  24  248  231 32% 2 138838 39716 75%
c i  0.04 27 53 0  38  342  320 33% 5 138838 39693 75%
c i  0.04 27 53 0  41  349  326 33% 5 138838 39681 75%
c i  0.04 27 53 0  41  351  327 33% 5 138838 39677 75%
c i  0.04 27 52 0  43  358  331 33% 5 138838 39664 75%
c i  0.04 27 52 0  43  359  331 33% 5 138838 39658 75%
c i  0.04 27 52 0  44  360  331 33% 5 138838 39652 75%
c i  0.04 27 51 0  45  365  335 33% 5 138838 39649 75%
c i  0.05 27 51 0  60  456  422 33% 5 138838 39648 75%
c i  0.05 27 61 0  60  866  794 34% 4 138838 39630 75%
c i  0.05 27 61 0  60  869  796 34% 4 138838 39611 75%
c }  0.06 27 55 0  60 1001  917 34% 4 138838 39611 75%
c [  0.06 27  0 0  60 1001  917  0% 0 138838 39611 75%
c O  0.06 27  1 0  60 1002  917 28% 0 138838 39611 75%
c i  0.06 27  1 0  60 1002  917 28% 0 138838 39593 75%
c 
c  seconds  reductions  redundant  irredundant
c         MB    restarts       trail       variables
c          level   conflicts       glue         remaining
c 
c i  0.06 27  1 0  60 1003  917 29% 0 138838 39575 75%
c i  0.06 27  1 0  60 1004  917 30% 0 138838 39557 75%
c i  0.06 27  1 0  60 1005  917 30% 0 138838 39539 75%
c i  0.06 27  1 0  60 1006  917 31% 0 138838 39521 75%
c i  0.06 27  1 0  60 1007  917 32% 0 138838 39503 75%
c i  0.06 27  1 0  60 1008  917 33% 0 138838 39480 75%
c i  0.06 27  1 0  60 1009  917 34% 0 138838 39459 75%
c i  0.07 27 131 0  60 1051  958 67% 2 138838 39458 75%
c i  0.07 27 144 0  60 1059  965 71% 2 138838 39457 75%
c i  0.07 27 174 0  60 1097 1001 81% 3 138838 39456 75%
c i  0.08 27 195 0  60 1185 1087 88% 5 138838 39455 75%
c i  0.09 27 208 0  60 1414 1302 92% 7 138838 39454 75%
c ]  0.16 28 143 0  61 3003 2795 65% 9 138838 39454 75%
c {  0.16 28 55 0  61 3003 2795 34% 4 138838 39454 75%
c F  0.16 28 55 0  61 3004 2796 34% 4 138838 39454 75%
c i  0.16 28 54 0  61 3032 2821 34% 4 138838 39409 75%
c i  0.16 28 53 0  61 3052 2839 34% 4 138838 39395 75%
c i  0.17 28 48 0  61 3193 2962 33% 4 138838 39370 75%
c i  0.17 28 52 0  72 3390 3142 34% 4 138838 39314 74%
c i  0.18 28 53 0  95 3751 3462 34% 4 138838 39277 74%
c 
c  seconds  reductions  redundant  irredundant
c         MB    restarts       trail       variables
c          level   conflicts       glue         remaining
c 
c i  0.19 28 52 0 115 3909 3610 35% 4 138838 39276 74%
c i  0.23 28 48 0 304 5103 4694 34% 4 138838 39275 74%
c i  0.24 28 47 0 319 5286 4840 34% 4 138838 39274 74%
c i  0.24 28 47 0 321 5310 4860 34% 4 138838 39273 74%
c i  0.24 28 47 0 326 5409 4935 34% 4 138838 39272 74%
c i  0.26 28 45 0 367 5739 5238 34% 4 138838 39261 74%
c #  0.27 28 45 0 377 6006 5487 35% 4 138838 39261 74%
c i  0.30 29 42 0 416 6593 5984 35% 4 138838 39247 74%
c i  0.31 29 40 0 424 6835 6181 35% 4 138838 39207 74%
c i  0.31 29 40 0 424 6836 6181 35% 4 138838 39193 74%
c }  0.32 29 40 0 436 7003 6318 35% 4 138838 39193 74%
c [  0.32 29 143 0 436 7003 6318 65% 9 138838 39193 74%
c ]  0.35 29 110 0 437 7836 7026 56% 9 138838 38576 73%
c 0  0.35 29 110 0 437 7836 7026 56% 9 138838 38576 73%
c 
c --- [ result ] -------------------------------------------------------------
c 
s UNSATISFIABLE
c 
c --- [ run-time profiling ] -------------------------------------------------
c 
c process time taken by individual solving procedures
c (percentage relative to process time for solving)
c 
c         0.33   99.97% search
c         0.19   56.74% unstable
c         0.14   42.38% stable
c         0.02    7.38% parse
c         0.00    0.83% lucky
c         0.00    0.00% simplify
c   =================================
c         0.33   93.02% solve
c 
c last line shows process time for solving
c (percentage relative to total process time)
c 
c --- [ statistics ] ---------------------------------------------------------
c 
c chronological:              2991        38.17 %  of conflicts
c conflicts:                  7836     23843.07    per second
c decisions:                 26067     79315.62    per second
c fixed:                     14232        26.95 %  of all variables
c learned:                    7505        95.78 %  per conflict
c learned_lits:             191585       100.00 %  learned literals
c minimized:                     0         0.00 %  learned literals
c shrunken:                  18095         9.44 %  learned literals
c minishrunken:              36904        19.26 %  learned literals
c otfs:                         98         1.25 %  of conflict
c propagations:            4963877        15.10 M  per second
c rephased:                      3      2612.00    interval
c restarts:                    437        17.93    interval
c stabilizing:                   2        36.17 %  of conflicts
c subsumed:                    437         0.30 %  of all clauses
c strengthened:                 97         0.07 %  of all clauses
c 
c seconds are measured in process time for solving
c 
c --- [ resources ] ----------------------------------------------------------
c 
c total process time since initialization:         0.35    seconds
c total real time since initialization:            0.36    seconds
c maximum resident set size of process:           28.48    MB
c 
c --- [ shutting down ] ------------------------------------------------------
c 
c exit 20
